\Nonlinear LP file
\Names escaped using: @

\Problem name: noname                                                           
\FICO Xpress v9.4.2, Hyper, written 14:01:15, Jan 3, 2025

Minimize
__OBJ___: 12455.496135664902 + 5000 v_0 + 5000 v_1 + 5000 v_2 + 5000 v_3 + 5000 v_4
 + 5000 v_5 + 5000 v_6 + 5000 v_7 + 5000 v_8 + 5000 v_9 + 500 w_0 + 500 w_1
 + 500 w_2 + 500 w_3 + 500 w_4 + 500 w_5 + 500 w_6 + 500 w_7 + 500 w_8
 + 500 w_9 + 14.563500000000001 y_1_0_0 + 14.563500000000001 y_1_1_0
 + 14.563500000000001 y_1_2_0 + 14.563500000000001 y_1_3_0
 + 14.563500000000001 y_1_4_0 + 14.563500000000001 y_1_5_0
 + 14.563500000000001 y_1_6_0 + 14.563500000000001 y_1_7_0
 + 14.563500000000001 y_1_8_0 + 14.563500000000001 y_1_9_0
 + 14.563500000000001 y_2_0_0 + 14.563500000000001 y_2_1_0
 + 14.563500000000001 y_2_2_0 + 14.563500000000001 y_2_3_0
 + 14.563500000000001 y_2_4_0 + 14.563500000000001 y_2_5_0
 + 14.563500000000001 y_2_6_0 + 14.563500000000001 y_2_7_0
 + 14.563500000000001 y_2_8_0 + 14.563500000000001 y_2_9_0
 + 14.563500000000001 y_3_0_0 + 14.563500000000001 y_3_1_0
 + 14.563500000000001 y_3_2_0 + 14.563500000000001 y_3_3_0
 + 14.563500000000001 y_3_4_0 + 14.563500000000001 y_3_5_0
 + 14.563500000000001 y_3_6_0 + 14.563500000000001 y_3_7_0
 + 14.563500000000001 y_3_8_0 + 14.563500000000001 y_3_9_0
 + 14.563500000000001 y_6_0_0 + 14.563500000000001 y_6_1_0
 + 14.563500000000001 y_6_2_0 + 14.563500000000001 y_6_3_0
 + 14.563500000000001 y_6_4_0 + 14.563500000000001 y_6_5_0
 + 14.563500000000001 y_6_6_0 + 14.563500000000001 y_6_7_0
 + 14.563500000000001 y_6_8_0 + 14.563500000000001 y_6_9_0
 + 14.563500000000001 y_8_0_0 + 14.563500000000001 y_8_1_0
 + 14.563500000000001 y_8_2_0 + 14.563500000000001 y_8_3_0
 + 14.563500000000001 y_8_4_0 + 14.563500000000001 y_8_5_0
 + 14.563500000000001 y_8_6_0 + 14.563500000000001 y_8_7_0
 + 14.563500000000001 y_8_8_0 + 14.563500000000001 y_8_9_0
 + 14.563500000000001 y_2_0_1 + 14.563500000000001 y_2_1_1
 + 14.563500000000001 y_2_2_1 + 14.563500000000001 y_2_3_1
 + 14.563500000000001 y_2_4_1 + 14.563500000000001 y_2_5_1
 + 14.563500000000001 y_2_6_1 + 14.563500000000001 y_2_7_1
 + 14.563500000000001 y_2_8_1 + 14.563500000000001 y_2_9_1
 + 14.563500000000001 y_3_0_1 + 14.563500000000001 y_3_1_1
 + 14.563500000000001 y_3_2_1 + 14.563500000000001 y_3_3_1
 + 14.563500000000001 y_3_4_1 + 14.563500000000001 y_3_5_1
 + 14.563500000000001 y_3_6_1 + 14.563500000000001 y_3_7_1
 + 14.563500000000001 y_3_8_1 + 14.563500000000001 y_3_9_1
 + 14.563500000000001 y_4_0_1 + 14.563500000000001 y_4_1_1
 + 14.563500000000001 y_4_2_1 + 14.563500000000001 y_4_3_1
 + 14.563500000000001 y_4_4_1 + 14.563500000000001 y_4_5_1
 + 14.563500000000001 y_4_6_1 + 14.563500000000001 y_4_7_1
 + 14.563500000000001 y_4_8_1 + 14.563500000000001 y_4_9_1
 + 14.563500000000001 y_6_0_1 + 14.563500000000001 y_6_1_1
 + 14.563500000000001 y_6_2_1 + 14.563500000000001 y_6_3_1
 + 14.563500000000001 y_6_4_1 + 14.563500000000001 y_6_5_1
 + 14.563500000000001 y_6_6_1 + 14.563500000000001 y_6_7_1
 + 14.563500000000001 y_6_8_1 + 14.563500000000001 y_6_9_1
 + 14.563500000000001 y_9_0_1 + 14.563500000000001 y_9_1_1
 + 14.563500000000001 y_9_2_1 + 14.563500000000001 y_9_3_1
 + 14.563500000000001 y_9_4_1 + 14.563500000000001 y_9_5_1
 + 14.563500000000001 y_9_6_1 + 14.563500000000001 y_9_7_1
 + 14.563500000000001 y_9_8_1 + 14.563500000000001 y_9_9_1 + 0 x_0_0 + 0 x_0_1
 + 0 x_1_0 + 0 x_1_1 + 0 x_2_0 + 0 x_2_1 + 0 x_3_0 + 0 x_3_1 + 0 x_4_0
 + 0 x_4_1 + 0 x_5_0 + 0 x_5_1 + 0 x_6_0 + 0 x_6_1 + 0 x_7_0 + 0 x_7_1
 + 0 x_8_0 + 0 x_8_1 + 0 x_9_0 + 0 x_9_1

Subject To
R1: v_0 - w_0 <= 0 
R2: v_1 - w_1 <= 0 
R3: v_2 - w_2 <= 0 
R4: v_3 - w_3 <= 0 
R5: v_4 - w_4 <= 0 
R6: v_5 - w_5 <= 0 
R7: v_6 - w_6 <= 0 
R8: v_7 - w_7 <= 0 
R9: v_8 - w_8 <= 0 
R10: v_9 - w_9 <= 0 
R11: - 8 v_0 + w_0 <= 0 
R12: - 8 v_1 + w_1 <= 0 
R13: - 8 v_2 + w_2 <= 0 
R14: - 8 v_3 + w_3 <= 0 
R15: - 8 v_4 + w_4 <= 0 
R16: - 8 v_5 + w_5 <= 0 
R17: - 8 v_6 + w_6 <= 0 
R18: - 8 v_7 + w_7 <= 0 
R19: - 8 v_8 + w_8 <= 0 
R20: - 8 v_9 + w_9 <= 0 
R21: - 2 w_0 + u_1_0_0 + u_2_0_0 + u_3_0_0 + u_6_0_0 + u_8_0_0 <= 0 
R22: - 2 w_0 + u_2_0_1 + u_3_0_1 + u_4_0_1 + u_6_0_1 + u_9_0_1 <= 0 
R23: - 2 w_1 + u_1_1_0 + u_2_1_0 + u_3_1_0 + u_6_1_0 + u_8_1_0 <= 0 
R24: - 2 w_1 + u_2_1_1 + u_3_1_1 + u_4_1_1 + u_6_1_1 + u_9_1_1 <= 0 
R25: - 2 w_2 + u_1_2_0 + u_2_2_0 + u_3_2_0 + u_6_2_0 + u_8_2_0 <= 0 
R26: - 2 w_2 + u_2_2_1 + u_3_2_1 + u_4_2_1 + u_6_2_1 + u_9_2_1 <= 0 
R27: - 2 w_3 + u_1_3_0 + u_2_3_0 + u_3_3_0 + u_6_3_0 + u_8_3_0 <= 0 
R28: - 2 w_3 + u_2_3_1 + u_3_3_1 + u_4_3_1 + u_6_3_1 + u_9_3_1 <= 0 
R29: - 2 w_4 + u_1_4_0 + u_2_4_0 + u_3_4_0 + u_6_4_0 + u_8_4_0 <= 0 
R30: - 2 w_4 + u_2_4_1 + u_3_4_1 + u_4_4_1 + u_6_4_1 + u_9_4_1 <= 0 
R31: - 2 w_5 + u_1_5_0 + u_2_5_0 + u_3_5_0 + u_6_5_0 + u_8_5_0 <= 0 
R32: - 2 w_5 + u_2_5_1 + u_3_5_1 + u_4_5_1 + u_6_5_1 + u_9_5_1 <= 0 
R33: - 2 w_6 + u_1_6_0 + u_2_6_0 + u_3_6_0 + u_6_6_0 + u_8_6_0 <= 0 
R34: - 2 w_6 + u_2_6_1 + u_3_6_1 + u_4_6_1 + u_6_6_1 + u_9_6_1 <= 0 
R35: - 2 w_7 + u_1_7_0 + u_2_7_0 + u_3_7_0 + u_6_7_0 + u_8_7_0 <= 0 
R36: - 2 w_7 + u_2_7_1 + u_3_7_1 + u_4_7_1 + u_6_7_1 + u_9_7_1 <= 0 
R37: - 2 w_8 + u_1_8_0 + u_2_8_0 + u_3_8_0 + u_6_8_0 + u_8_8_0 <= 0 
R38: - 2 w_8 + u_2_8_1 + u_3_8_1 + u_4_8_1 + u_6_8_1 + u_9_8_1 <= 0 
R39: - 2 w_9 + u_1_9_0 + u_2_9_0 + u_3_9_0 + u_6_9_0 + u_8_9_0 <= 0 
R40: - 2 w_9 + u_2_9_1 + u_3_9_1 + u_4_9_1 + u_6_9_1 + u_9_9_1 <= 0 
R41: u_1_0_0 + u_1_1_0 + u_1_2_0 + u_1_3_0 + u_1_4_0 + u_1_5_0 + u_1_6_0
          + u_1_7_0 + u_1_8_0 + u_1_9_0 <= 1 
R42: u_2_0_0 + u_2_1_0 + u_2_2_0 + u_2_3_0 + u_2_4_0 + u_2_5_0 + u_2_6_0
          + u_2_7_0 + u_2_8_0 + u_2_9_0 <= 1 
R43: u_3_0_0 + u_3_1_0 + u_3_2_0 + u_3_3_0 + u_3_4_0 + u_3_5_0 + u_3_6_0
          + u_3_7_0 + u_3_8_0 + u_3_9_0 <= 1 
R44: u_6_0_0 + u_6_1_0 + u_6_2_0 + u_6_3_0 + u_6_4_0 + u_6_5_0 + u_6_6_0
          + u_6_7_0 + u_6_8_0 + u_6_9_0 <= 1 
R45: u_8_0_0 + u_8_1_0 + u_8_2_0 + u_8_3_0 + u_8_4_0 + u_8_5_0 + u_8_6_0
          + u_8_7_0 + u_8_8_0 + u_8_9_0 <= 1 
R46: u_2_0_1 + u_2_1_1 + u_2_2_1 + u_2_3_1 + u_2_4_1 + u_2_5_1 + u_2_6_1
          + u_2_7_1 + u_2_8_1 + u_2_9_1 <= 1 
R47: u_3_0_1 + u_3_1_1 + u_3_2_1 + u_3_3_1 + u_3_4_1 + u_3_5_1 + u_3_6_1
          + u_3_7_1 + u_3_8_1 + u_3_9_1 <= 1 
R48: u_4_0_1 + u_4_1_1 + u_4_2_1 + u_4_3_1 + u_4_4_1 + u_4_5_1 + u_4_6_1
          + u_4_7_1 + u_4_8_1 + u_4_9_1 <= 1 
R49: u_6_0_1 + u_6_1_1 + u_6_2_1 + u_6_3_1 + u_6_4_1 + u_6_5_1 + u_6_6_1
          + u_6_7_1 + u_6_8_1 + u_6_9_1 <= 1 
R50: u_9_0_1 + u_9_1_1 + u_9_2_1 + u_9_3_1 + u_9_4_1 + u_9_5_1 + u_9_6_1
          + u_9_7_1 + u_9_8_1 + u_9_9_1 <= 1 
R51: u_1_0_0 + u_1_1_0 + u_1_2_0 + u_1_3_0 + u_1_4_0 + u_1_5_0 + u_1_6_0
          + u_1_7_0 + u_1_8_0 + u_1_9_0 + u_2_0_0 + u_2_1_0 + u_2_2_0 + u_2_3_0
          + u_2_4_0 + u_2_5_0 + u_2_6_0 + u_2_7_0 + u_2_8_0 + u_2_9_0 + u_3_0_0
          + u_3_1_0 + u_3_2_0 + u_3_3_0 + u_3_4_0 + u_3_5_0 + u_3_6_0 + u_3_7_0
          + u_3_8_0 + u_3_9_0 + u_6_0_0 + u_6_1_0 + u_6_2_0 + u_6_3_0 + u_6_4_0
          + u_6_5_0 + u_6_6_0 + u_6_7_0 + u_6_8_0 + u_6_9_0 + u_8_0_0 + u_8_1_0
          + u_8_2_0 + u_8_3_0 + u_8_4_0 + u_8_5_0 + u_8_6_0 + u_8_7_0 + u_8_8_0
          + u_8_9_0 >= 4.75 
R52: u_2_0_1 + u_2_1_1 + u_2_2_1 + u_2_3_1 + u_2_4_1 + u_2_5_1 + u_2_6_1
          + u_2_7_1 + u_2_8_1 + u_2_9_1 + u_3_0_1 + u_3_1_1 + u_3_2_1 + u_3_3_1
          + u_3_4_1 + u_3_5_1 + u_3_6_1 + u_3_7_1 + u_3_8_1 + u_3_9_1 + u_4_0_1
          + u_4_1_1 + u_4_2_1 + u_4_3_1 + u_4_4_1 + u_4_5_1 + u_4_6_1 + u_4_7_1
          + u_4_8_1 + u_4_9_1 + u_6_0_1 + u_6_1_1 + u_6_2_1 + u_6_3_1 + u_6_4_1
          + u_6_5_1 + u_6_6_1 + u_6_7_1 + u_6_8_1 + u_6_9_1 + u_9_0_1 + u_9_1_1
          + u_9_2_1 + u_9_3_1 + u_9_4_1 + u_9_5_1 + u_9_6_1 + u_9_7_1 + u_9_8_1
          + u_9_9_1 >= 4.75 
R53: - 47.57041818545029 u_1_0_0 + y_1_0_0 <= 0 
R54: - 130.81142080555273 u_2_0_0 + y_2_0_0 <= 0 
R55: - 111.73531318852162 u_3_0_0 + y_3_0_0 <= 0 
R56: - 85.59409369206304 u_6_0_0 + y_6_0_0 <= 0 
R57: - 40.78397979670847 u_8_0_0 + y_8_0_0 <= 0 
R58: - 63.23791024343271 u_2_0_1 + y_2_0_1 <= 0 
R59: - 35.75064593192117 u_3_0_1 + y_3_0_1 <= 0 
R60: - 56.43320202350317 u_4_0_1 + y_4_0_1 <= 0 
R61: - 73.02381907624688 u_6_0_1 + y_6_0_1 <= 0 
R62: - 96.05677710674787 u_9_0_1 + y_9_0_1 <= 0 
R63: - 47.57041818545029 u_1_1_0 + y_1_1_0 <= 0 
R64: - 130.81142080555273 u_2_1_0 + y_2_1_0 <= 0 
R65: - 111.73531318852162 u_3_1_0 + y_3_1_0 <= 0 
R66: - 85.59409369206304 u_6_1_0 + y_6_1_0 <= 0 
R67: - 40.78397979670847 u_8_1_0 + y_8_1_0 <= 0 
R68: - 63.23791024343271 u_2_1_1 + y_2_1_1 <= 0 
R69: - 35.75064593192117 u_3_1_1 + y_3_1_1 <= 0 
R70: - 56.43320202350317 u_4_1_1 + y_4_1_1 <= 0 
R71: - 73.02381907624688 u_6_1_1 + y_6_1_1 <= 0 
R72: - 96.05677710674787 u_9_1_1 + y_9_1_1 <= 0 
R73: - 47.57041818545029 u_1_2_0 + y_1_2_0 <= 0 
R74: - 130.81142080555273 u_2_2_0 + y_2_2_0 <= 0 
R75: - 111.73531318852162 u_3_2_0 + y_3_2_0 <= 0 
R76: - 85.59409369206304 u_6_2_0 + y_6_2_0 <= 0 
R77: - 40.78397979670847 u_8_2_0 + y_8_2_0 <= 0 
R78: - 63.23791024343271 u_2_2_1 + y_2_2_1 <= 0 
R79: - 35.75064593192117 u_3_2_1 + y_3_2_1 <= 0 
R80: - 56.43320202350317 u_4_2_1 + y_4_2_1 <= 0 
R81: - 73.02381907624688 u_6_2_1 + y_6_2_1 <= 0 
R82: - 96.05677710674787 u_9_2_1 + y_9_2_1 <= 0 
R83: - 47.57041818545029 u_1_3_0 + y_1_3_0 <= 0 
R84: - 130.81142080555273 u_2_3_0 + y_2_3_0 <= 0 
R85: - 111.73531318852162 u_3_3_0 + y_3_3_0 <= 0 
R86: - 85.59409369206304 u_6_3_0 + y_6_3_0 <= 0 
R87: - 40.78397979670847 u_8_3_0 + y_8_3_0 <= 0 
R88: - 63.23791024343271 u_2_3_1 + y_2_3_1 <= 0 
R89: - 35.75064593192117 u_3_3_1 + y_3_3_1 <= 0 
R90: - 56.43320202350317 u_4_3_1 + y_4_3_1 <= 0 
R91: - 73.02381907624688 u_6_3_1 + y_6_3_1 <= 0 
R92: - 96.05677710674787 u_9_3_1 + y_9_3_1 <= 0 
R93: - 47.57041818545029 u_1_4_0 + y_1_4_0 <= 0 
R94: - 130.81142080555273 u_2_4_0 + y_2_4_0 <= 0 
R95: - 111.73531318852162 u_3_4_0 + y_3_4_0 <= 0 
R96: - 85.59409369206304 u_6_4_0 + y_6_4_0 <= 0 
R97: - 40.78397979670847 u_8_4_0 + y_8_4_0 <= 0 
R98: - 63.23791024343271 u_2_4_1 + y_2_4_1 <= 0 
R99: - 35.75064593192117 u_3_4_1 + y_3_4_1 <= 0 
R100: - 56.43320202350317 u_4_4_1 + y_4_4_1 <= 0 
R101: - 73.02381907624688 u_6_4_1 + y_6_4_1 <= 0 
R102: - 96.05677710674787 u_9_4_1 + y_9_4_1 <= 0 
R103: - 47.57041818545029 u_1_5_0 + y_1_5_0 <= 0 
R104: - 130.81142080555273 u_2_5_0 + y_2_5_0 <= 0 
R105: - 111.73531318852162 u_3_5_0 + y_3_5_0 <= 0 
R106: - 85.59409369206304 u_6_5_0 + y_6_5_0 <= 0 
R107: - 40.78397979670847 u_8_5_0 + y_8_5_0 <= 0 
R108: - 63.23791024343271 u_2_5_1 + y_2_5_1 <= 0 
R109: - 35.75064593192117 u_3_5_1 + y_3_5_1 <= 0 
R110: - 56.43320202350317 u_4_5_1 + y_4_5_1 <= 0 
R111: - 73.02381907624688 u_6_5_1 + y_6_5_1 <= 0 
R112: - 96.05677710674787 u_9_5_1 + y_9_5_1 <= 0 
R113: - 47.57041818545029 u_1_6_0 + y_1_6_0 <= 0 
R114: - 130.81142080555273 u_2_6_0 + y_2_6_0 <= 0 
R115: - 111.73531318852162 u_3_6_0 + y_3_6_0 <= 0 
R116: - 85.59409369206304 u_6_6_0 + y_6_6_0 <= 0 
R117: - 40.78397979670847 u_8_6_0 + y_8_6_0 <= 0 
R118: - 63.23791024343271 u_2_6_1 + y_2_6_1 <= 0 
R119: - 35.75064593192117 u_3_6_1 + y_3_6_1 <= 0 
R120: - 56.43320202350317 u_4_6_1 + y_4_6_1 <= 0 
R121: - 73.02381907624688 u_6_6_1 + y_6_6_1 <= 0 
R122: - 96.05677710674787 u_9_6_1 + y_9_6_1 <= 0 
R123: - 47.57041818545029 u_1_7_0 + y_1_7_0 <= 0 
R124: - 130.81142080555273 u_2_7_0 + y_2_7_0 <= 0 
R125: - 111.73531318852162 u_3_7_0 + y_3_7_0 <= 0 
R126: - 85.59409369206304 u_6_7_0 + y_6_7_0 <= 0 
R127: - 40.78397979670847 u_8_7_0 + y_8_7_0 <= 0 
R128: - 63.23791024343271 u_2_7_1 + y_2_7_1 <= 0 
R129: - 35.75064593192117 u_3_7_1 + y_3_7_1 <= 0 
R130: - 56.43320202350317 u_4_7_1 + y_4_7_1 <= 0 
R131: - 73.02381907624688 u_6_7_1 + y_6_7_1 <= 0 
R132: - 96.05677710674787 u_9_7_1 + y_9_7_1 <= 0 
R133: - 47.57041818545029 u_1_8_0 + y_1_8_0 <= 0 
R134: - 130.81142080555273 u_2_8_0 + y_2_8_0 <= 0 
R135: - 111.73531318852162 u_3_8_0 + y_3_8_0 <= 0 
R136: - 85.59409369206304 u_6_8_0 + y_6_8_0 <= 0 
R137: - 40.78397979670847 u_8_8_0 + y_8_8_0 <= 0 
R138: - 63.23791024343271 u_2_8_1 + y_2_8_1 <= 0 
R139: - 35.75064593192117 u_3_8_1 + y_3_8_1 <= 0 
R140: - 56.43320202350317 u_4_8_1 + y_4_8_1 <= 0 
R141: - 73.02381907624688 u_6_8_1 + y_6_8_1 <= 0 
R142: - 96.05677710674787 u_9_8_1 + y_9_8_1 <= 0 
R143: - 47.57041818545029 u_1_9_0 + y_1_9_0 <= 0 
R144: - 130.81142080555273 u_2_9_0 + y_2_9_0 <= 0 
R145: - 111.73531318852162 u_3_9_0 + y_3_9_0 <= 0 
R146: - 85.59409369206304 u_6_9_0 + y_6_9_0 <= 0 
R147: - 40.78397979670847 u_8_9_0 + y_8_9_0 <= 0 
R148: - 63.23791024343271 u_2_9_1 + y_2_9_1 <= 0 
R149: - 35.75064593192117 u_3_9_1 + y_3_9_1 <= 0 
R150: - 56.43320202350317 u_4_9_1 + y_4_9_1 <= 0 
R151: - 73.02381907624688 u_6_9_1 + y_6_9_1 <= 0 
R152: - 96.05677710674787 u_9_9_1 + y_9_9_1 <= 0 
R153: 47.57041818545029 u_1_0_0 - y_1_0_0 + d_tilde_1_0 <= 47.57041818545029 
R154: 130.81142080555273 u_2_0_0 - y_2_0_0 + d_tilde_2_0 <= 130.81142080555273 
R155: 111.73531318852162 u_3_0_0 - y_3_0_0 + d_tilde_3_0 <= 111.73531318852162 
R156: 85.59409369206304 u_6_0_0 - y_6_0_0 + d_tilde_6_0 <= 85.59409369206304 
R157: 40.78397979670847 u_8_0_0 - y_8_0_0 + d_tilde_8_0 <= 40.78397979670847 
R158: 63.23791024343271 u_2_0_1 - y_2_0_1 + d_tilde_2_0 <= 63.23791024343271 
R159: 35.75064593192117 u_3_0_1 - y_3_0_1 + d_tilde_3_0 <= 35.75064593192117 
R160: 56.43320202350317 u_4_0_1 - y_4_0_1 + d_tilde_4_0 <= 56.43320202350317 
R161: 73.02381907624688 u_6_0_1 - y_6_0_1 + d_tilde_6_0 <= 73.02381907624688 
R162: 96.05677710674787 u_9_0_1 - y_9_0_1 + d_tilde_9_0 <= 96.05677710674787 
R163: 47.57041818545029 u_1_1_0 - y_1_1_0 + d_tilde_1_1 <= 47.57041818545029 
R164: 130.81142080555273 u_2_1_0 - y_2_1_0 + d_tilde_2_1 <= 130.81142080555273 
R165: 111.73531318852162 u_3_1_0 - y_3_1_0 + d_tilde_3_1 <= 111.73531318852162 
R166: 85.59409369206304 u_6_1_0 - y_6_1_0 + d_tilde_6_1 <= 85.59409369206304 
R167: 40.78397979670847 u_8_1_0 - y_8_1_0 + d_tilde_8_1 <= 40.78397979670847 
R168: 63.23791024343271 u_2_1_1 - y_2_1_1 + d_tilde_2_1 <= 63.23791024343271 
R169: 35.75064593192117 u_3_1_1 - y_3_1_1 + d_tilde_3_1 <= 35.75064593192117 
R170: 56.43320202350317 u_4_1_1 - y_4_1_1 + d_tilde_4_1 <= 56.43320202350317 
R171: 73.02381907624688 u_6_1_1 - y_6_1_1 + d_tilde_6_1 <= 73.02381907624688 
R172: 96.05677710674787 u_9_1_1 - y_9_1_1 + d_tilde_9_1 <= 96.05677710674787 
R173: 47.57041818545029 u_1_2_0 - y_1_2_0 + d_tilde_1_2 <= 47.57041818545029 
R174: 130.81142080555273 u_2_2_0 - y_2_2_0 + d_tilde_2_2 <= 130.81142080555273 
R175: 111.73531318852162 u_3_2_0 - y_3_2_0 + d_tilde_3_2 <= 111.73531318852162 
R176: 85.59409369206304 u_6_2_0 - y_6_2_0 + d_tilde_6_2 <= 85.59409369206304 
R177: 40.78397979670847 u_8_2_0 - y_8_2_0 + d_tilde_8_2 <= 40.78397979670847 
R178: 63.23791024343271 u_2_2_1 - y_2_2_1 + d_tilde_2_2 <= 63.23791024343271 
R179: 35.75064593192117 u_3_2_1 - y_3_2_1 + d_tilde_3_2 <= 35.75064593192117 
R180: 56.43320202350317 u_4_2_1 - y_4_2_1 + d_tilde_4_2 <= 56.43320202350317 
R181: 73.02381907624688 u_6_2_1 - y_6_2_1 + d_tilde_6_2 <= 73.02381907624688 
R182: 96.05677710674787 u_9_2_1 - y_9_2_1 + d_tilde_9_2 <= 96.05677710674787 
R183: 47.57041818545029 u_1_3_0 - y_1_3_0 + d_tilde_1_3 <= 47.57041818545029 
R184: 130.81142080555273 u_2_3_0 - y_2_3_0 + d_tilde_2_3 <= 130.81142080555273 
R185: 111.73531318852162 u_3_3_0 - y_3_3_0 + d_tilde_3_3 <= 111.73531318852162 
R186: 85.59409369206304 u_6_3_0 - y_6_3_0 + d_tilde_6_3 <= 85.59409369206304 
R187: 40.78397979670847 u_8_3_0 - y_8_3_0 + d_tilde_8_3 <= 40.78397979670847 
R188: 63.23791024343271 u_2_3_1 - y_2_3_1 + d_tilde_2_3 <= 63.23791024343271 
R189: 35.75064593192117 u_3_3_1 - y_3_3_1 + d_tilde_3_3 <= 35.75064593192117 
R190: 56.43320202350317 u_4_3_1 - y_4_3_1 + d_tilde_4_3 <= 56.43320202350317 
R191: 73.02381907624688 u_6_3_1 - y_6_3_1 + d_tilde_6_3 <= 73.02381907624688 
R192: 96.05677710674787 u_9_3_1 - y_9_3_1 + d_tilde_9_3 <= 96.05677710674787 
R193: 47.57041818545029 u_1_4_0 - y_1_4_0 + d_tilde_1_4 <= 47.57041818545029 
R194: 130.81142080555273 u_2_4_0 - y_2_4_0 + d_tilde_2_4 <= 130.81142080555273 
R195: 111.73531318852162 u_3_4_0 - y_3_4_0 + d_tilde_3_4 <= 111.73531318852162 
R196: 85.59409369206304 u_6_4_0 - y_6_4_0 + d_tilde_6_4 <= 85.59409369206304 
R197: 40.78397979670847 u_8_4_0 - y_8_4_0 + d_tilde_8_4 <= 40.78397979670847 
R198: 63.23791024343271 u_2_4_1 - y_2_4_1 + d_tilde_2_4 <= 63.23791024343271 
R199: 35.75064593192117 u_3_4_1 - y_3_4_1 + d_tilde_3_4 <= 35.75064593192117 
R200: 56.43320202350317 u_4_4_1 - y_4_4_1 + d_tilde_4_4 <= 56.43320202350317 
R201: 73.02381907624688 u_6_4_1 - y_6_4_1 + d_tilde_6_4 <= 73.02381907624688 
R202: 96.05677710674787 u_9_4_1 - y_9_4_1 + d_tilde_9_4 <= 96.05677710674787 
R203: 47.57041818545029 u_1_5_0 - y_1_5_0 + d_tilde_1_5 <= 47.57041818545029 
R204: 130.81142080555273 u_2_5_0 - y_2_5_0 + d_tilde_2_5 <= 130.81142080555273 
R205: 111.73531318852162 u_3_5_0 - y_3_5_0 + d_tilde_3_5 <= 111.73531318852162 
R206: 85.59409369206304 u_6_5_0 - y_6_5_0 + d_tilde_6_5 <= 85.59409369206304 
R207: 40.78397979670847 u_8_5_0 - y_8_5_0 + d_tilde_8_5 <= 40.78397979670847 
R208: 63.23791024343271 u_2_5_1 - y_2_5_1 + d_tilde_2_5 <= 63.23791024343271 
R209: 35.75064593192117 u_3_5_1 - y_3_5_1 + d_tilde_3_5 <= 35.75064593192117 
R210: 56.43320202350317 u_4_5_1 - y_4_5_1 + d_tilde_4_5 <= 56.43320202350317 
R211: 73.02381907624688 u_6_5_1 - y_6_5_1 + d_tilde_6_5 <= 73.02381907624688 
R212: 96.05677710674787 u_9_5_1 - y_9_5_1 + d_tilde_9_5 <= 96.05677710674787 
R213: 47.57041818545029 u_1_6_0 - y_1_6_0 + d_tilde_1_6 <= 47.57041818545029 
R214: 130.81142080555273 u_2_6_0 - y_2_6_0 + d_tilde_2_6 <= 130.81142080555273 
R215: 111.73531318852162 u_3_6_0 - y_3_6_0 + d_tilde_3_6 <= 111.73531318852162 
R216: 85.59409369206304 u_6_6_0 - y_6_6_0 + d_tilde_6_6 <= 85.59409369206304 
R217: 40.78397979670847 u_8_6_0 - y_8_6_0 + d_tilde_8_6 <= 40.78397979670847 
R218: 63.23791024343271 u_2_6_1 - y_2_6_1 + d_tilde_2_6 <= 63.23791024343271 
R219: 35.75064593192117 u_3_6_1 - y_3_6_1 + d_tilde_3_6 <= 35.75064593192117 
R220: 56.43320202350317 u_4_6_1 - y_4_6_1 + d_tilde_4_6 <= 56.43320202350317 
R221: 73.02381907624688 u_6_6_1 - y_6_6_1 + d_tilde_6_6 <= 73.02381907624688 
R222: 96.05677710674787 u_9_6_1 - y_9_6_1 + d_tilde_9_6 <= 96.05677710674787 
R223: 47.57041818545029 u_1_7_0 - y_1_7_0 + d_tilde_1_7 <= 47.57041818545029 
R224: 130.81142080555273 u_2_7_0 - y_2_7_0 + d_tilde_2_7 <= 130.81142080555273 
R225: 111.73531318852162 u_3_7_0 - y_3_7_0 + d_tilde_3_7 <= 111.73531318852162 
R226: 85.59409369206304 u_6_7_0 - y_6_7_0 + d_tilde_6_7 <= 85.59409369206304 
R227: 40.78397979670847 u_8_7_0 - y_8_7_0 + d_tilde_8_7 <= 40.78397979670847 
R228: 63.23791024343271 u_2_7_1 - y_2_7_1 + d_tilde_2_7 <= 63.23791024343271 
R229: 35.75064593192117 u_3_7_1 - y_3_7_1 + d_tilde_3_7 <= 35.75064593192117 
R230: 56.43320202350317 u_4_7_1 - y_4_7_1 + d_tilde_4_7 <= 56.43320202350317 
R231: 73.02381907624688 u_6_7_1 - y_6_7_1 + d_tilde_6_7 <= 73.02381907624688 
R232: 96.05677710674787 u_9_7_1 - y_9_7_1 + d_tilde_9_7 <= 96.05677710674787 
R233: 47.57041818545029 u_1_8_0 - y_1_8_0 + d_tilde_1_8 <= 47.57041818545029 
R234: 130.81142080555273 u_2_8_0 - y_2_8_0 + d_tilde_2_8 <= 130.81142080555273 
R235: 111.73531318852162 u_3_8_0 - y_3_8_0 + d_tilde_3_8 <= 111.73531318852162 
R236: 85.59409369206304 u_6_8_0 - y_6_8_0 + d_tilde_6_8 <= 85.59409369206304 
R237: 40.78397979670847 u_8_8_0 - y_8_8_0 + d_tilde_8_8 <= 40.78397979670847 
R238: 63.23791024343271 u_2_8_1 - y_2_8_1 + d_tilde_2_8 <= 63.23791024343271 
R239: 35.75064593192117 u_3_8_1 - y_3_8_1 + d_tilde_3_8 <= 35.75064593192117 
R240: 56.43320202350317 u_4_8_1 - y_4_8_1 + d_tilde_4_8 <= 56.43320202350317 
R241: 73.02381907624688 u_6_8_1 - y_6_8_1 + d_tilde_6_8 <= 73.02381907624688 
R242: 96.05677710674787 u_9_8_1 - y_9_8_1 + d_tilde_9_8 <= 96.05677710674787 
R243: 47.57041818545029 u_1_9_0 - y_1_9_0 + d_tilde_1_9 <= 47.57041818545029 
R244: 130.81142080555273 u_2_9_0 - y_2_9_0 + d_tilde_2_9 <= 130.81142080555273 
R245: 111.73531318852162 u_3_9_0 - y_3_9_0 + d_tilde_3_9 <= 111.73531318852162 
R246: 85.59409369206304 u_6_9_0 - y_6_9_0 + d_tilde_6_9 <= 85.59409369206304 
R247: 40.78397979670847 u_8_9_0 - y_8_9_0 + d_tilde_8_9 <= 40.78397979670847 
R248: 63.23791024343271 u_2_9_1 - y_2_9_1 + d_tilde_2_9 <= 63.23791024343271 
R249: 35.75064593192117 u_3_9_1 - y_3_9_1 + d_tilde_3_9 <= 35.75064593192117 
R250: 56.43320202350317 u_4_9_1 - y_4_9_1 + d_tilde_4_9 <= 56.43320202350317 
R251: 73.02381907624688 u_6_9_1 - y_6_9_1 + d_tilde_6_9 <= 73.02381907624688 
R252: 96.05677710674787 u_9_9_1 - y_9_9_1 + d_tilde_9_9 <= 96.05677710674787 
R253: y_1_0_0 - d_tilde_1_0 <= 0 
R254: y_2_0_0 - d_tilde_2_0 <= 0 
R255: y_3_0_0 - d_tilde_3_0 <= 0 
R256: y_6_0_0 - d_tilde_6_0 <= 0 
R257: y_8_0_0 - d_tilde_8_0 <= 0 
R258: y_2_0_1 - d_tilde_2_0 <= 0 
R259: y_3_0_1 - d_tilde_3_0 <= 0 
R260: y_4_0_1 - d_tilde_4_0 <= 0 
R261: y_6_0_1 - d_tilde_6_0 <= 0 
R262: y_9_0_1 - d_tilde_9_0 <= 0 
R263: y_1_1_0 - d_tilde_1_1 <= 0 
R264: y_2_1_0 - d_tilde_2_1 <= 0 
R265: y_3_1_0 - d_tilde_3_1 <= 0 
R266: y_6_1_0 - d_tilde_6_1 <= 0 
R267: y_8_1_0 - d_tilde_8_1 <= 0 
R268: y_2_1_1 - d_tilde_2_1 <= 0 
R269: y_3_1_1 - d_tilde_3_1 <= 0 
R270: y_4_1_1 - d_tilde_4_1 <= 0 
R271: y_6_1_1 - d_tilde_6_1 <= 0 
R272: y_9_1_1 - d_tilde_9_1 <= 0 
R273: y_1_2_0 - d_tilde_1_2 <= 0 
R274: y_2_2_0 - d_tilde_2_2 <= 0 
R275: y_3_2_0 - d_tilde_3_2 <= 0 
R276: y_6_2_0 - d_tilde_6_2 <= 0 
R277: y_8_2_0 - d_tilde_8_2 <= 0 
R278: y_2_2_1 - d_tilde_2_2 <= 0 
R279: y_3_2_1 - d_tilde_3_2 <= 0 
R280: y_4_2_1 - d_tilde_4_2 <= 0 
R281: y_6_2_1 - d_tilde_6_2 <= 0 
R282: y_9_2_1 - d_tilde_9_2 <= 0 
R283: y_1_3_0 - d_tilde_1_3 <= 0 
R284: y_2_3_0 - d_tilde_2_3 <= 0 
R285: y_3_3_0 - d_tilde_3_3 <= 0 
R286: y_6_3_0 - d_tilde_6_3 <= 0 
R287: y_8_3_0 - d_tilde_8_3 <= 0 
R288: y_2_3_1 - d_tilde_2_3 <= 0 
R289: y_3_3_1 - d_tilde_3_3 <= 0 
R290: y_4_3_1 - d_tilde_4_3 <= 0 
R291: y_6_3_1 - d_tilde_6_3 <= 0 
R292: y_9_3_1 - d_tilde_9_3 <= 0 
R293: y_1_4_0 - d_tilde_1_4 <= 0 
R294: y_2_4_0 - d_tilde_2_4 <= 0 
R295: y_3_4_0 - d_tilde_3_4 <= 0 
R296: y_6_4_0 - d_tilde_6_4 <= 0 
R297: y_8_4_0 - d_tilde_8_4 <= 0 
R298: y_2_4_1 - d_tilde_2_4 <= 0 
R299: y_3_4_1 - d_tilde_3_4 <= 0 
R300: y_4_4_1 - d_tilde_4_4 <= 0 
R301: y_6_4_1 - d_tilde_6_4 <= 0 
R302: y_9_4_1 - d_tilde_9_4 <= 0 
R303: y_1_5_0 - d_tilde_1_5 <= 0 
R304: y_2_5_0 - d_tilde_2_5 <= 0 
R305: y_3_5_0 - d_tilde_3_5 <= 0 
R306: y_6_5_0 - d_tilde_6_5 <= 0 
R307: y_8_5_0 - d_tilde_8_5 <= 0 
R308: y_2_5_1 - d_tilde_2_5 <= 0 
R309: y_3_5_1 - d_tilde_3_5 <= 0 
R310: y_4_5_1 - d_tilde_4_5 <= 0 
R311: y_6_5_1 - d_tilde_6_5 <= 0 
R312: y_9_5_1 - d_tilde_9_5 <= 0 
R313: y_1_6_0 - d_tilde_1_6 <= 0 
R314: y_2_6_0 - d_tilde_2_6 <= 0 
R315: y_3_6_0 - d_tilde_3_6 <= 0 
R316: y_6_6_0 - d_tilde_6_6 <= 0 
R317: y_8_6_0 - d_tilde_8_6 <= 0 
R318: y_2_6_1 - d_tilde_2_6 <= 0 
R319: y_3_6_1 - d_tilde_3_6 <= 0 
R320: y_4_6_1 - d_tilde_4_6 <= 0 
R321: y_6_6_1 - d_tilde_6_6 <= 0 
R322: y_9_6_1 - d_tilde_9_6 <= 0 
R323: y_1_7_0 - d_tilde_1_7 <= 0 
R324: y_2_7_0 - d_tilde_2_7 <= 0 
R325: y_3_7_0 - d_tilde_3_7 <= 0 
R326: y_6_7_0 - d_tilde_6_7 <= 0 
R327: y_8_7_0 - d_tilde_8_7 <= 0 
R328: y_2_7_1 - d_tilde_2_7 <= 0 
R329: y_3_7_1 - d_tilde_3_7 <= 0 
R330: y_4_7_1 - d_tilde_4_7 <= 0 
R331: y_6_7_1 - d_tilde_6_7 <= 0 
R332: y_9_7_1 - d_tilde_9_7 <= 0 
R333: y_1_8_0 - d_tilde_1_8 <= 0 
R334: y_2_8_0 - d_tilde_2_8 <= 0 
R335: y_3_8_0 - d_tilde_3_8 <= 0 
R336: y_6_8_0 - d_tilde_6_8 <= 0 
R337: y_8_8_0 - d_tilde_8_8 <= 0 
R338: y_2_8_1 - d_tilde_2_8 <= 0 
R339: y_3_8_1 - d_tilde_3_8 <= 0 
R340: y_4_8_1 - d_tilde_4_8 <= 0 
R341: y_6_8_1 - d_tilde_6_8 <= 0 
R342: y_9_8_1 - d_tilde_9_8 <= 0 
R343: y_1_9_0 - d_tilde_1_9 <= 0 
R344: y_2_9_0 - d_tilde_2_9 <= 0 
R345: y_3_9_0 - d_tilde_3_9 <= 0 
R346: y_6_9_0 - d_tilde_6_9 <= 0 
R347: y_8_9_0 - d_tilde_8_9 <= 0 
R348: y_2_9_1 - d_tilde_2_9 <= 0 
R349: y_3_9_1 - d_tilde_3_9 <= 0 
R350: y_4_9_1 - d_tilde_4_9 <= 0 
R351: y_6_9_1 - d_tilde_6_9 <= 0 
R352: y_9_9_1 - d_tilde_9_9 <= 0 
R353: d_tilde_0_0 + -1 * { SQRT ( 1146.3529999999998 + -25.18 * x_0_0 + -62.86 * x_0_1 + x_0_0 * x_0_0 + x_0_1 * x_0_1 ) } = 0 
R354: d_tilde_1_0 + -1 * { SQRT ( 3319.4713 + -105.36 * x_0_0 + -46.66 * x_1_1 + x_0_0 * x_0_0 + x_1_1 * x_1_1 ) } = 0 
R355: d_tilde_2_0 + -1 * { SQRT ( 939.5245000000001 + -23.74 * x_0_0 + -56.52 * x_2_1 + x_0_0 * x_0_0 + x_2_1 * x_2_1 ) } = 0 
R356: d_tilde_3_0 + -1 * { SQRT ( 1728.7352999999998 + -12.96 * x_0_0 + -82.14 * x_3_1 + x_0_0 * x_0_0 + x_3_1 * x_3_1 ) } = 0 
R357: d_tilde_4_0 + -1 * { SQRT ( 3716.1605 + -81.94 * x_0_0 + -90.28 * x_4_1 + x_0_0 * x_0_0 + x_4_1 * x_4_1 ) } = 0 
R358: d_tilde_5_0 + -1 * { SQRT ( 2284.3705999999997 + -85.82 * x_0_0 + -42.1 * x_5_1 + x_0_0 * x_0_0 + x_5_1 * x_5_1 ) } = 0 
R359: d_tilde_6_0 + -1 * { SQRT ( 2746.1869 + -68.76 * x_0_0 + -79.1 * x_6_1 + x_0_0 * x_0_0 + x_6_1 * x_6_1 ) } = 0 
R360: d_tilde_7_0 + -1 * { SQRT ( 4275.1517 + -32.68 * x_0_0 + -126.62 * x_7_1 + x_0_0 * x_0_0 + x_7_1 * x_7_1 ) } = 0 
R361: d_tilde_8_0 + -1 * { SQRT ( 1211.6168000000002 + -62.84 * x_0_0 + -29.96 * x_8_1 + x_0_0 * x_0_0 + x_8_1 * x_8_1 ) } = 0 
R362: d_tilde_9_0 + -1 * { SQRT ( 1158.8980000000001 + -53.96 * x_0_0 + -41.52 * x_9_1 + x_0_0 * x_0_0 + x_9_1 * x_9_1 ) } = 0 
R363: d_tilde_0_1 + -1 * { SQRT ( 1146.3529999999998 + -62.86 * x_0_1 + -25.18 * x_1_0 + x_0_1 * x_0_1 + x_1_0 * x_1_0 ) } = 0 
R364: d_tilde_1_1 + -1 * { SQRT ( 3319.4713 + -105.36 * x_1_0 + -46.66 * x_1_1 + x_1_0 * x_1_0 + x_1_1 * x_1_1 ) } = 0 
R365: d_tilde_2_1 + -1 * { SQRT ( 939.5245000000001 + -23.74 * x_1_0 + -56.52 * x_2_1 + x_1_0 * x_1_0 + x_2_1 * x_2_1 ) } = 0 
R366: d_tilde_3_1 + -1 * { SQRT ( 1728.7352999999998 + -12.96 * x_1_0 + -82.14 * x_3_1 + x_1_0 * x_1_0 + x_3_1 * x_3_1 ) } = 0 
R367: d_tilde_4_1 + -1 * { SQRT ( 3716.1605 + -81.94 * x_1_0 + -90.28 * x_4_1 + x_1_0 * x_1_0 + x_4_1 * x_4_1 ) } = 0 
R368: d_tilde_5_1 + -1 * { SQRT ( 2284.3705999999997 + -85.82 * x_1_0 + -42.1 * x_5_1 + x_1_0 * x_1_0 + x_5_1 * x_5_1 ) } = 0 
R369: d_tilde_6_1 + -1 * { SQRT ( 2746.1869 + -68.76 * x_1_0 + -79.1 * x_6_1 + x_1_0 * x_1_0 + x_6_1 * x_6_1 ) } = 0 
R370: d_tilde_7_1 + -1 * { SQRT ( 4275.1517 + -32.68 * x_1_0 + -126.62 * x_7_1 + x_1_0 * x_1_0 + x_7_1 * x_7_1 ) } = 0 
R371: d_tilde_8_1 + -1 * { SQRT ( 1211.6168000000002 + -62.84 * x_1_0 + -29.96 * x_8_1 + x_1_0 * x_1_0 + x_8_1 * x_8_1 ) } = 0 
R372: d_tilde_9_1 + -1 * { SQRT ( 1158.8980000000001 + -53.96 * x_1_0 + -41.52 * x_9_1 + x_1_0 * x_1_0 + x_9_1 * x_9_1 ) } = 0 
R373: d_tilde_0_2 + -1 * { SQRT ( 1146.3529999999998 + -62.86 * x_0_1 + -25.18 * x_2_0 + x_0_1 * x_0_1 + x_2_0 * x_2_0 ) } = 0 
R374: d_tilde_1_2 + -1 * { SQRT ( 3319.4713 + -46.66 * x_1_1 + -105.36 * x_2_0 + x_1_1 * x_1_1 + x_2_0 * x_2_0 ) } = 0 
R375: d_tilde_2_2 + -1 * { SQRT ( 939.5245000000001 + -23.74 * x_2_0 + -56.52 * x_2_1 + x_2_0 * x_2_0 + x_2_1 * x_2_1 ) } = 0 
R376: d_tilde_3_2 + -1 * { SQRT ( 1728.7352999999998 + -12.96 * x_2_0 + -82.14 * x_3_1 + x_2_0 * x_2_0 + x_3_1 * x_3_1 ) } = 0 
R377: d_tilde_4_2 + -1 * { SQRT ( 3716.1605 + -81.94 * x_2_0 + -90.28 * x_4_1 + x_2_0 * x_2_0 + x_4_1 * x_4_1 ) } = 0 
R378: d_tilde_5_2 + -1 * { SQRT ( 2284.3705999999997 + -85.82 * x_2_0 + -42.1 * x_5_1 + x_2_0 * x_2_0 + x_5_1 * x_5_1 ) } = 0 
R379: d_tilde_6_2 + -1 * { SQRT ( 2746.1869 + -68.76 * x_2_0 + -79.1 * x_6_1 + x_2_0 * x_2_0 + x_6_1 * x_6_1 ) } = 0 
R380: d_tilde_7_2 + -1 * { SQRT ( 4275.1517 + -32.68 * x_2_0 + -126.62 * x_7_1 + x_2_0 * x_2_0 + x_7_1 * x_7_1 ) } = 0 
R381: d_tilde_8_2 + -1 * { SQRT ( 1211.6168000000002 + -62.84 * x_2_0 + -29.96 * x_8_1 + x_2_0 * x_2_0 + x_8_1 * x_8_1 ) } = 0 
R382: d_tilde_9_2 + -1 * { SQRT ( 1158.8980000000001 + -53.96 * x_2_0 + -41.52 * x_9_1 + x_2_0 * x_2_0 + x_9_1 * x_9_1 ) } = 0 
R383: d_tilde_0_3 + -1 * { SQRT ( 1146.3529999999998 + -62.86 * x_0_1 + -25.18 * x_3_0 + x_0_1 * x_0_1 + x_3_0 * x_3_0 ) } = 0 
R384: d_tilde_1_3 + -1 * { SQRT ( 3319.4713 + -46.66 * x_1_1 + -105.36 * x_3_0 + x_1_1 * x_1_1 + x_3_0 * x_3_0 ) } = 0 
R385: d_tilde_2_3 + -1 * { SQRT ( 939.5245000000001 + -56.52 * x_2_1 + -23.74 * x_3_0 + x_2_1 * x_2_1 + x_3_0 * x_3_0 ) } = 0 
R386: d_tilde_3_3 + -1 * { SQRT ( 1728.7352999999998 + -12.96 * x_3_0 + -82.14 * x_3_1 + x_3_0 * x_3_0 + x_3_1 * x_3_1 ) } = 0 
R387: d_tilde_4_3 + -1 * { SQRT ( 3716.1605 + -81.94 * x_3_0 + -90.28 * x_4_1 + x_3_0 * x_3_0 + x_4_1 * x_4_1 ) } = 0 
R388: d_tilde_5_3 + -1 * { SQRT ( 2284.3705999999997 + -85.82 * x_3_0 + -42.1 * x_5_1 + x_3_0 * x_3_0 + x_5_1 * x_5_1 ) } = 0 
R389: d_tilde_6_3 + -1 * { SQRT ( 2746.1869 + -68.76 * x_3_0 + -79.1 * x_6_1 + x_3_0 * x_3_0 + x_6_1 * x_6_1 ) } = 0 
R390: d_tilde_7_3 + -1 * { SQRT ( 4275.1517 + -32.68 * x_3_0 + -126.62 * x_7_1 + x_3_0 * x_3_0 + x_7_1 * x_7_1 ) } = 0 
R391: d_tilde_8_3 + -1 * { SQRT ( 1211.6168000000002 + -62.84 * x_3_0 + -29.96 * x_8_1 + x_3_0 * x_3_0 + x_8_1 * x_8_1 ) } = 0 
R392: d_tilde_9_3 + -1 * { SQRT ( 1158.8980000000001 + -53.96 * x_3_0 + -41.52 * x_9_1 + x_3_0 * x_3_0 + x_9_1 * x_9_1 ) } = 0 
R393: d_tilde_0_4 + -1 * { SQRT ( 1146.3529999999998 + -62.86 * x_0_1 + -25.18 * x_4_0 + x_0_1 * x_0_1 + x_4_0 * x_4_0 ) } = 0 
R394: d_tilde_1_4 + -1 * { SQRT ( 3319.4713 + -46.66 * x_1_1 + -105.36 * x_4_0 + x_1_1 * x_1_1 + x_4_0 * x_4_0 ) } = 0 
R395: d_tilde_2_4 + -1 * { SQRT ( 939.5245000000001 + -56.52 * x_2_1 + -23.74 * x_4_0 + x_2_1 * x_2_1 + x_4_0 * x_4_0 ) } = 0 
R396: d_tilde_3_4 + -1 * { SQRT ( 1728.7352999999998 + -82.14 * x_3_1 + -12.96 * x_4_0 + x_3_1 * x_3_1 + x_4_0 * x_4_0 ) } = 0 
R397: d_tilde_4_4 + -1 * { SQRT ( 3716.1605 + -81.94 * x_4_0 + -90.28 * x_4_1 + x_4_0 * x_4_0 + x_4_1 * x_4_1 ) } = 0 
R398: d_tilde_5_4 + -1 * { SQRT ( 2284.3705999999997 + -85.82 * x_4_0 + -42.1 * x_5_1 + x_4_0 * x_4_0 + x_5_1 * x_5_1 ) } = 0 
R399: d_tilde_6_4 + -1 * { SQRT ( 2746.1869 + -68.76 * x_4_0 + -79.1 * x_6_1 + x_4_0 * x_4_0 + x_6_1 * x_6_1 ) } = 0 
R400: d_tilde_7_4 + -1 * { SQRT ( 4275.1517 + -32.68 * x_4_0 + -126.62 * x_7_1 + x_4_0 * x_4_0 + x_7_1 * x_7_1 ) } = 0 
R401: d_tilde_8_4 + -1 * { SQRT ( 1211.6168000000002 + -62.84 * x_4_0 + -29.96 * x_8_1 + x_4_0 * x_4_0 + x_8_1 * x_8_1 ) } = 0 
R402: d_tilde_9_4 + -1 * { SQRT ( 1158.8980000000001 + -53.96 * x_4_0 + -41.52 * x_9_1 + x_4_0 * x_4_0 + x_9_1 * x_9_1 ) } = 0 
R403: d_tilde_0_5 + -1 * { SQRT ( 1146.3529999999998 + -62.86 * x_0_1 + -25.18 * x_5_0 + x_0_1 * x_0_1 + x_5_0 * x_5_0 ) } = 0 
R404: d_tilde_1_5 + -1 * { SQRT ( 3319.4713 + -46.66 * x_1_1 + -105.36 * x_5_0 + x_1_1 * x_1_1 + x_5_0 * x_5_0 ) } = 0 
R405: d_tilde_2_5 + -1 * { SQRT ( 939.5245000000001 + -56.52 * x_2_1 + -23.74 * x_5_0 + x_2_1 * x_2_1 + x_5_0 * x_5_0 ) } = 0 
R406: d_tilde_3_5 + -1 * { SQRT ( 1728.7352999999998 + -82.14 * x_3_1 + -12.96 * x_5_0 + x_3_1 * x_3_1 + x_5_0 * x_5_0 ) } = 0 
R407: d_tilde_4_5 + -1 * { SQRT ( 3716.1605 + -90.28 * x_4_1 + -81.94 * x_5_0 + x_4_1 * x_4_1 + x_5_0 * x_5_0 ) } = 0 
R408: d_tilde_5_5 + -1 * { SQRT ( 2284.3705999999997 + -85.82 * x_5_0 + -42.1 * x_5_1 + x_5_0 * x_5_0 + x_5_1 * x_5_1 ) } = 0 
R409: d_tilde_6_5 + -1 * { SQRT ( 2746.1869 + -68.76 * x_5_0 + -79.1 * x_6_1 + x_5_0 * x_5_0 + x_6_1 * x_6_1 ) } = 0 
R410: d_tilde_7_5 + -1 * { SQRT ( 4275.1517 + -32.68 * x_5_0 + -126.62 * x_7_1 + x_5_0 * x_5_0 + x_7_1 * x_7_1 ) } = 0 
R411: d_tilde_8_5 + -1 * { SQRT ( 1211.6168000000002 + -62.84 * x_5_0 + -29.96 * x_8_1 + x_5_0 * x_5_0 + x_8_1 * x_8_1 ) } = 0 
R412: d_tilde_9_5 + -1 * { SQRT ( 1158.8980000000001 + -53.96 * x_5_0 + -41.52 * x_9_1 + x_5_0 * x_5_0 + x_9_1 * x_9_1 ) } = 0 
R413: d_tilde_0_6 + -1 * { SQRT ( 1146.3529999999998 + -62.86 * x_0_1 + -25.18 * x_6_0 + x_0_1 * x_0_1 + x_6_0 * x_6_0 ) } = 0 
R414: d_tilde_1_6 + -1 * { SQRT ( 3319.4713 + -46.66 * x_1_1 + -105.36 * x_6_0 + x_1_1 * x_1_1 + x_6_0 * x_6_0 ) } = 0 
R415: d_tilde_2_6 + -1 * { SQRT ( 939.5245000000001 + -56.52 * x_2_1 + -23.74 * x_6_0 + x_2_1 * x_2_1 + x_6_0 * x_6_0 ) } = 0 
R416: d_tilde_3_6 + -1 * { SQRT ( 1728.7352999999998 + -82.14 * x_3_1 + -12.96 * x_6_0 + x_3_1 * x_3_1 + x_6_0 * x_6_0 ) } = 0 
R417: d_tilde_4_6 + -1 * { SQRT ( 3716.1605 + -90.28 * x_4_1 + -81.94 * x_6_0 + x_4_1 * x_4_1 + x_6_0 * x_6_0 ) } = 0 
R418: d_tilde_5_6 + -1 * { SQRT ( 2284.3705999999997 + -42.1 * x_5_1 + -85.82 * x_6_0 + x_5_1 * x_5_1 + x_6_0 * x_6_0 ) } = 0 
R419: d_tilde_6_6 + -1 * { SQRT ( 2746.1869 + -68.76 * x_6_0 + -79.1 * x_6_1 + x_6_0 * x_6_0 + x_6_1 * x_6_1 ) } = 0 
R420: d_tilde_7_6 + -1 * { SQRT ( 4275.1517 + -32.68 * x_6_0 + -126.62 * x_7_1 + x_6_0 * x_6_0 + x_7_1 * x_7_1 ) } = 0 
R421: d_tilde_8_6 + -1 * { SQRT ( 1211.6168000000002 + -62.84 * x_6_0 + -29.96 * x_8_1 + x_6_0 * x_6_0 + x_8_1 * x_8_1 ) } = 0 
R422: d_tilde_9_6 + -1 * { SQRT ( 1158.8980000000001 + -53.96 * x_6_0 + -41.52 * x_9_1 + x_6_0 * x_6_0 + x_9_1 * x_9_1 ) } = 0 
R423: d_tilde_0_7 + -1 * { SQRT ( 1146.3529999999998 + -62.86 * x_0_1 + -25.18 * x_7_0 + x_0_1 * x_0_1 + x_7_0 * x_7_0 ) } = 0 
R424: d_tilde_1_7 + -1 * { SQRT ( 3319.4713 + -46.66 * x_1_1 + -105.36 * x_7_0 + x_1_1 * x_1_1 + x_7_0 * x_7_0 ) } = 0 
R425: d_tilde_2_7 + -1 * { SQRT ( 939.5245000000001 + -56.52 * x_2_1 + -23.74 * x_7_0 + x_2_1 * x_2_1 + x_7_0 * x_7_0 ) } = 0 
R426: d_tilde_3_7 + -1 * { SQRT ( 1728.7352999999998 + -82.14 * x_3_1 + -12.96 * x_7_0 + x_3_1 * x_3_1 + x_7_0 * x_7_0 ) } = 0 
R427: d_tilde_4_7 + -1 * { SQRT ( 3716.1605 + -90.28 * x_4_1 + -81.94 * x_7_0 + x_4_1 * x_4_1 + x_7_0 * x_7_0 ) } = 0 
R428: d_tilde_5_7 + -1 * { SQRT ( 2284.3705999999997 + -42.1 * x_5_1 + -85.82 * x_7_0 + x_5_1 * x_5_1 + x_7_0 * x_7_0 ) } = 0 
R429: d_tilde_6_7 + -1 * { SQRT ( 2746.1869 + -79.1 * x_6_1 + -68.76 * x_7_0 + x_6_1 * x_6_1 + x_7_0 * x_7_0 ) } = 0 
R430: d_tilde_7_7 + -1 * { SQRT ( 4275.1517 + -32.68 * x_7_0 + -126.62 * x_7_1 + x_7_0 * x_7_0 + x_7_1 * x_7_1 ) } = 0 
R431: d_tilde_8_7 + -1 * { SQRT ( 1211.6168000000002 + -62.84 * x_7_0 + -29.96 * x_8_1 + x_7_0 * x_7_0 + x_8_1 * x_8_1 ) } = 0 
R432: d_tilde_9_7 + -1 * { SQRT ( 1158.8980000000001 + -53.96 * x_7_0 + -41.52 * x_9_1 + x_7_0 * x_7_0 + x_9_1 * x_9_1 ) } = 0 
R433: d_tilde_0_8 + -1 * { SQRT ( 1146.3529999999998 + -62.86 * x_0_1 + -25.18 * x_8_0 + x_0_1 * x_0_1 + x_8_0 * x_8_0 ) } = 0 
R434: d_tilde_1_8 + -1 * { SQRT ( 3319.4713 + -46.66 * x_1_1 + -105.36 * x_8_0 + x_1_1 * x_1_1 + x_8_0 * x_8_0 ) } = 0 
R435: d_tilde_2_8 + -1 * { SQRT ( 939.5245000000001 + -56.52 * x_2_1 + -23.74 * x_8_0 + x_2_1 * x_2_1 + x_8_0 * x_8_0 ) } = 0 
R436: d_tilde_3_8 + -1 * { SQRT ( 1728.7352999999998 + -82.14 * x_3_1 + -12.96 * x_8_0 + x_3_1 * x_3_1 + x_8_0 * x_8_0 ) } = 0 
R437: d_tilde_4_8 + -1 * { SQRT ( 3716.1605 + -90.28 * x_4_1 + -81.94 * x_8_0 + x_4_1 * x_4_1 + x_8_0 * x_8_0 ) } = 0 
R438: d_tilde_5_8 + -1 * { SQRT ( 2284.3705999999997 + -42.1 * x_5_1 + -85.82 * x_8_0 + x_5_1 * x_5_1 + x_8_0 * x_8_0 ) } = 0 
R439: d_tilde_6_8 + -1 * { SQRT ( 2746.1869 + -79.1 * x_6_1 + -68.76 * x_8_0 + x_6_1 * x_6_1 + x_8_0 * x_8_0 ) } = 0 
R440: d_tilde_7_8 + -1 * { SQRT ( 4275.1517 + -126.62 * x_7_1 + -32.68 * x_8_0 + x_7_1 * x_7_1 + x_8_0 * x_8_0 ) } = 0 
R441: d_tilde_8_8 + -1 * { SQRT ( 1211.6168000000002 + -62.84 * x_8_0 + -29.96 * x_8_1 + x_8_0 * x_8_0 + x_8_1 * x_8_1 ) } = 0 
R442: d_tilde_9_8 + -1 * { SQRT ( 1158.8980000000001 + -53.96 * x_8_0 + -41.52 * x_9_1 + x_8_0 * x_8_0 + x_9_1 * x_9_1 ) } = 0 
R443: d_tilde_0_9 + -1 * { SQRT ( 1146.3529999999998 + -62.86 * x_0_1 + -25.18 * x_9_0 + x_0_1 * x_0_1 + x_9_0 * x_9_0 ) } = 0 
R444: d_tilde_1_9 + -1 * { SQRT ( 3319.4713 + -46.66 * x_1_1 + -105.36 * x_9_0 + x_1_1 * x_1_1 + x_9_0 * x_9_0 ) } = 0 
R445: d_tilde_2_9 + -1 * { SQRT ( 939.5245000000001 + -56.52 * x_2_1 + -23.74 * x_9_0 + x_2_1 * x_2_1 + x_9_0 * x_9_0 ) } = 0 
R446: d_tilde_3_9 + -1 * { SQRT ( 1728.7352999999998 + -82.14 * x_3_1 + -12.96 * x_9_0 + x_3_1 * x_3_1 + x_9_0 * x_9_0 ) } = 0 
R447: d_tilde_4_9 + -1 * { SQRT ( 3716.1605 + -90.28 * x_4_1 + -81.94 * x_9_0 + x_4_1 * x_4_1 + x_9_0 * x_9_0 ) } = 0 
R448: d_tilde_5_9 + -1 * { SQRT ( 2284.3705999999997 + -42.1 * x_5_1 + -85.82 * x_9_0 + x_5_1 * x_5_1 + x_9_0 * x_9_0 ) } = 0 
R449: d_tilde_6_9 + -1 * { SQRT ( 2746.1869 + -79.1 * x_6_1 + -68.76 * x_9_0 + x_6_1 * x_6_1 + x_9_0 * x_9_0 ) } = 0 
R450: d_tilde_7_9 + -1 * { SQRT ( 4275.1517 + -126.62 * x_7_1 + -32.68 * x_9_0 + x_7_1 * x_7_1 + x_9_0 * x_9_0 ) } = 0 
R451: d_tilde_8_9 + -1 * { SQRT ( 1211.6168000000002 + -29.96 * x_8_1 + -62.84 * x_9_0 + x_8_1 * x_8_1 + x_9_0 * x_9_0 ) } = 0 
R452: d_tilde_9_9 + -1 * { SQRT ( 1158.8980000000001 + -53.96 * x_9_0 + -41.52 * x_9_1 + x_9_0 * x_9_0 + x_9_1 * x_9_1 ) } = 0 

Bounds
6.48 <= x_0_0 <= 52.68 
14.98 <= x_0_1 <= 63.31 
6.48 <= x_1_0 <= 52.68 
14.98 <= x_1_1 <= 63.31 
6.48 <= x_2_0 <= 52.68 
14.98 <= x_2_1 <= 63.31 
6.48 <= x_3_0 <= 52.68 
14.98 <= x_3_1 <= 63.31 
6.48 <= x_4_0 <= 52.68 
14.98 <= x_4_1 <= 63.31 
6.48 <= x_5_0 <= 52.68 
14.98 <= x_5_1 <= 63.31 
6.48 <= x_6_0 <= 52.68 
14.98 <= x_6_1 <= 63.31 
6.48 <= x_7_0 <= 52.68 
14.98 <= x_7_1 <= 63.31 
6.48 <= x_8_0 <= 52.68 
14.98 <= x_8_1 <= 63.31 
6.48 <= x_9_0 <= 52.68 
14.98 <= x_9_1 <= 63.31 

Generals
w_0 w_1 w_2 w_3 w_4 w_5 w_6 w_7 w_8 w_9 

Binaries
v_0 v_1 v_2 v_3 v_4 v_5 v_6 v_7 v_8 v_9 u_1_0_0 u_1_1_0 u_1_2_0 u_1_3_0 
u_1_4_0 u_1_5_0 u_1_6_0 u_1_7_0 u_1_8_0 u_1_9_0 u_2_0_0 u_2_1_0 u_2_2_0 
u_2_3_0 u_2_4_0 u_2_5_0 u_2_6_0 u_2_7_0 u_2_8_0 u_2_9_0 u_3_0_0 u_3_1_0 
u_3_2_0 u_3_3_0 u_3_4_0 u_3_5_0 u_3_6_0 u_3_7_0 u_3_8_0 u_3_9_0 u_6_0_0 
u_6_1_0 u_6_2_0 u_6_3_0 u_6_4_0 u_6_5_0 u_6_6_0 u_6_7_0 u_6_8_0 u_6_9_0 
u_8_0_0 u_8_1_0 u_8_2_0 u_8_3_0 u_8_4_0 u_8_5_0 u_8_6_0 u_8_7_0 u_8_8_0 
u_8_9_0 u_2_0_1 u_2_1_1 u_2_2_1 u_2_3_1 u_2_4_1 u_2_5_1 u_2_6_1 u_2_7_1 
u_2_8_1 u_2_9_1 u_3_0_1 u_3_1_1 u_3_2_1 u_3_3_1 u_3_4_1 u_3_5_1 u_3_6_1 
u_3_7_1 u_3_8_1 u_3_9_1 u_4_0_1 u_4_1_1 u_4_2_1 u_4_3_1 u_4_4_1 u_4_5_1 
u_4_6_1 u_4_7_1 u_4_8_1 u_4_9_1 u_6_0_1 u_6_1_1 u_6_2_1 u_6_3_1 u_6_4_1 
u_6_5_1 u_6_6_1 u_6_7_1 u_6_8_1 u_6_9_1 u_9_0_1 u_9_1_1 u_9_2_1 u_9_3_1 
u_9_4_1 u_9_5_1 u_9_6_1 u_9_7_1 u_9_8_1 u_9_9_1 

End
